(set-logic ALL)
(set-option :produce-models true)
(define-fun-rec str.toLower ((x String)) String
  (ite (= x "")
      ""
      (let ((Head (str.at x 0)))
        (str.++ 
          (ite (and (<= 65 (str.to_code Head)) 
                     (<= (str.to_code Head) 90))
               (str.from_code (+ (str.to_code Head) 32))
               Head)
          (str.toLower (str.substr x 1 (- (str.len x) 1)))))))
(declare-fun sym209 () String)
(declare-fun sym1901 () String)
(declare-fun sym3618 () String)
(declare-fun sym3717 () String)
(declare-fun sym817 () String)
(declare-fun sym2119 () String)
(declare-fun sym1688 () String)
(declare-fun sym1039 () String)
(declare-fun sym551 () String)
(declare-fun sym3405 () String)
(declare-fun sym2756 () String)
(declare-fun sym1257 () String)
(declare-fun sym2974 () String)
(declare-fun sym2332 () String)
(declare-fun sym3187 () String)
(declare-fun sym2550 () String)
(declare-fun sym161 () String)
(declare-fun sym1470 () String)

(assert (not (= (str.toLower (str.substr sym2550  0 1))"p" )))
(assert (not (= (str.toLower (str.substr sym2119  0 1))"p" )))
(assert (not (= (str.toLower (str.substr sym3405  0 1))"q" )))
(assert (= "" sym161 ))
(assert (not (= (str.toLower (str.substr sym2550  0 1))"q" )))
(assert (not (= (str.toLower (str.substr sym1688  0 1))"q" )))
(assert (not (= "" sym1257 )))
(assert (not (= "" sym3405 )))
(assert (= (str.toLower (str.substr sym817  0 1))"k" ))
(assert (not (= (str.toLower (str.substr sym1470  0 1))"q" )))
(assert (not (= (str.toLower (str.substr sym1688  0 1))"p" )))
(assert (not (= "" sym209 )))
(assert (not (= (str.toLower (str.substr sym2756  0 1))"q" )))
(assert (= (str.toLower (str.substr sym1901  0 1))"p" ))
(assert (not (= "" sym3187 )))
(assert (not (= "" sym2550 )))
(assert (= "" "" ))
(assert (= (str.toLower (str.substr sym209  0 1))"y" ))
(assert (not (= (str.toLower (str.substr sym1257  0 1))"p" )))
(assert (not (= "" sym3618 )))
(assert (= (str.toLower (str.substr sym2332  0 1))"p" ))
(assert (not (= "" sym2974 )))
(assert (not (= "" sym3717 )))
(assert (= (str.toLower (str.substr sym3618  0 1))"p" ))
(assert (not (= "" sym2332 )))
(assert (not (= (str.toLower (str.substr sym1039  0 1))"q" )))
(assert (not (= (str.toLower (str.substr sym3717  0 1))"y" )))
(assert (not (= (str.toLower (str.substr sym3618  0 1))"q" )))
(assert (= (str.toLower (str.substr sym3187  0 1))"p" ))
(assert (not (= "" sym817 )))
(assert (not (= (str.toLower (str.substr sym817  0 1))"q" )))
(assert (not (= (str.toLower (str.substr sym2974  0 1))"q" )))
(assert (not (= "" sym2119 )))
(assert (= (str.toLower (str.substr sym551  0 1))"p" ))
(assert (not (= "" sym1901 )))
(assert (not (= "" "n" )))
(assert (not (= (str.toLower (str.substr sym2332  0 1))"q" )))
(assert (not (= "" sym1470 )))
(assert (not (= "" (str.toLower (str.substr sym209  0 1)))))
(assert (not (= (str.toLower (str.substr sym551  0 1))"q" )))
(assert (= (str.toLower (str.substr sym1470  0 1))"p" ))
(assert (not (= (str.toLower (str.substr sym3187  0 1))"q" )))
(assert (not (= "" sym551 )))
(assert (not (= "" "y" )))
(assert (= (str.toLower (str.substr sym1688  0 1))"k" ))
(assert (not (= (str.toLower (str.substr sym1257  0 1))"q" )))
(assert (= "y" "y" ))
(assert (not (= (str.toLower (str.substr sym2974  0 1))"p" )))
(assert (= (str.toLower (str.substr sym2119  0 1))"k" ))
(assert (= (str.toLower (str.substr sym2550  0 1))"k" ))
(assert (not (= "" (str.toLower (str.substr sym3717  0 1)))))
(assert (= (str.toLower (str.substr sym1039  0 1))"p" ))
(assert (not (= "y" "n" )))
(assert (not (= "" sym2756 )))
(assert (not (= (str.toLower (str.substr sym1901  0 1))"q" )))
(assert (not (= (str.toLower (str.substr sym3405  0 1))"p" )))
(assert (not (= "" "y" )))
(assert (not (= "" "q" )))
(assert (= (str.toLower (str.substr sym3405  0 1))"k" ))
(assert (= (str.toLower (str.substr sym1257  0 1))"k" ))
(assert (= (str.toLower (str.substr sym2756  0 1))"p" ))
(assert (= (str.toLower (str.substr sym2974  0 1))"k" ))
(assert (not (= "n" "y" )))
(assert (not (= (str.toLower (str.substr sym817  0 1))"p" )))
(assert (not (= "" sym1039 )))
(assert (not (= "" sym1688 )))
(assert (not (= (str.toLower (str.substr sym2119  0 1))"q" )))
(check-sat)
(get-model)
(exit)
